50
    1   398   404
    2   305   248
    3    24    54
    4    21    63
    5   131   128
    6    44    94
    7   392   401
    8   233   208
    9   353   369
   10   483   470
   11   171   208
   12   388   383
   13   244   296
   14    50    16
   15   370   361
   16    51     1
   17   264   281
   18   149   196
   19   641   597
   20    49    58
   21   397   337
   22    94    44
   23    60    56
   24   554   531
   25   234   265
   26   336   332
   27    91    70
   28   190   236
   29   227   210
   30   348   371
   31   224   198
   32   452   400
   33   389   440
   34   246   217
   35   390   344
   36   475   509
   37   308   248
   38   326   353
   39   618   560
   40   248   259
   41   235   251
   42    50   102
   43   386   330
   44   458   434
   45   579   531
   46   307   247
   47   611   558
   48    71   126
   49   274   259
   50   469   468
601
